
Gurobi 9.1.0 (win64) logging started Mon Dec 14 20:14:10 2020

Changed value of parameter LogFile to logs/iteration8
   Prev:   Default: 
Gurobi Optimizer version 9.1.0 build v9.1.0rc0 (win64)
Thread count: 4 physical cores, 8 logical processors, using up to 8 threads
Optimize a model with 136 rows, 486 columns and 1870 nonzeros
Model fingerprint: 0x1ab6a56b
Coefficient statistics:
  Matrix range     [1e+00, 1e+00]
  Objective range  [1e+03, 4e+03]
  Bounds range     [0e+00, 0e+00]
  RHS range        [1e+00, 1e+00]
Presolve removed 41 rows and 41 columns
Presolve time: 0.00s
Presolved: 95 rows, 445 columns, 1828 nonzeros

Iteration    Objective       Primal Inf.    Dual Inf.      Time
       0    8.8449417e+04   7.800000e+01   0.000000e+00      0s
     208    1.2377817e+05   0.000000e+00   0.000000e+00      0s

Solved in 208 iterations and 0.01 seconds
Optimal objective  1.237781667e+05

Solutionx[10] 1.000000 
x[13] 1.000000 
x[24] 1.000000 
x[26] 1.000000 
x[27] 1.000000 
x[29] 1.000000 
x[41] 1.000000 
x[52] 1.000000 
x[53] 1.000000 
x[54] 1.000000 
x[55] 1.000000 
x[60] 1.000000 
x[61] 1.000000 
x[63] 1.000000 
x[64] 1.000000 
x[65] 1.000000 
x[70] 1.000000 
x[71] 1.000000 
x[72] 1.000000 
x[73] 1.000000 
x[74] 1.000000 
x[75] 1.000000 
x[76] 1.000000 
x[77] 1.000000 
x[78] 1.000000 
x[82] 1.000000 
x[83] 1.000000 
x[84] 1.000000 
x[87] 1.000000 
x[90] 1.000000 
x[93] 1.000000 
x[100] 1.000000 
x[101] 1.000000 
x[102] 1.000000 
x[103] 1.000000 
x[104] 1.000000 
x[105] 1.000000 
x[107] 1.000000 
x[113] 1.000000 
x[116] 1.000000 
x[118] 1.000000 
x[120] 1.000000 
x[121] 1.000000 
x[122] 1.000000 
x[123] 1.000000 
x[124] 1.000000 
x[125] 1.000000 
x[126] 1.000000 
x[127] 1.000000 
x[128] 1.000000 
x[129] 1.000000 
x[130] 1.000000 
x[131] 1.000000 
x[132] 1.000000 
x[133] 1.000000 
x[134] 1.000000 
x[135] 1.000000 
x[264] 1.000000 
x[2455] 1.000000 
x[2944] 1.000000 
x[4760] 1.000000 
x[5967] 1.000000 
x[9961] 1.000000 
x[1268] 1.000000 
x[27379] 1.000000 
x[520] 1.000000 
x[1033] 1.000000 
x[18730] 1.000000 
x[14965] 1.000000 
x[10881] 1.000000 
x[30937] 1.000000 
x[9184] 1.000000 
x[5707] 1.000000 
